%datafile - Caso 1: Restrictivo
% Capacidades de refinado y almacenamiento reducidas, balance V/NV ajustado (PV=5),
% rango de dureza estrecho [3.5, 5.5] y coste de almacenamiento elevado (CA=8).
% Objetivo: forzar al solver a refinar cerca del límite y a evitar almacenar de más.

VALOR = 200;
dureza = [8.8, 6.1, 2.0, 4.2, 5.0];
precios = [| 110, 120, 130, 110, 115
           | 130, 130, 110,  90, 115
           | 110, 140, 130, 100,  95
           | 120, 110, 120, 120, 125
           | 100, 120, 150, 110, 105
           |  90, 100, 140,  80, 135 |];

MAXV = 150;
MAXN = 200;

PV = 5;

MCAP = 500;

CA = 8;

MinD = 3.5;
MaxD = 5.5;
MinB = 80000;

inicial = [200, 200, 200, 200, 200];
